5 5
7 3 3 9 2 4 1 8 3 4 8 5 2 3 9 4 5 11 1 11 2 2 3 15 1 4 2 3 4 8 3 11 2 3 5 4 2 1 8 5 12 2 5 3 4 1 2 3
6 4 1 4 3 13 5 3 4 14 2 1 13 5 7 2 4 3 1 19 3 1 4 3 11 5 18 2 2 18 1 14 3 4 2 5 10 3 20
4 4 3 4 5 20 2 18 4 16 2 3 11 5 14 3 4 16 3 13 1 20 3 4 13 5 10 1 20
5 4 5 16 3 18 1 12 2 20 4 4 20 3 6 1 20 5 14 5 3 13 4 16 5 11 2 17 1 20 4 4 11 2 17 5 13 3 6 2 1 15 2 14
6 3 3 8 5 2 4 7 1 3 19 5 2 6 4 4 3 15 5 12 1 9 5 5 2 1 5 3 12 2 16 4 20 5 5 11 1 6 4 20 2 14 3 5 4 2 10 4 20 1 20 3 3